(set-info :smt-lib-version 2.6)
(set-logic QF_NIA)
(set-info :source |
Generated by: Cristina Borralleras, Daniel Larraz, Albert Oliveras, Enric Rodriguez-Carbonell, Albert Rubio
Generated on: 2017-04-27
Generator: VeryMax
Application: Termination proving
Target solver: barcelogic
|)
(set-info :license "https://creativecommons.org/licenses/by/4.0/")
(set-info :category "industrial")
(set-info :status sat)
(declare-fun Nl2main_i1 () Int)
(declare-fun Nl2main_up1 () Int)
(declare-fun Nl2main_i2 () Int)
(declare-fun Nl2main_up2 () Int)
(declare-fun lam0n0 () Int)
(declare-fun lam0n2 () Int)
(declare-fun lam0n3 () Int)
(declare-fun lam0n1 () Int)
(declare-fun Nl2CT1 () Int)
(declare-fun Nl2CT2 () Int)
(declare-fun lam1n0 () Int)
(declare-fun lam1n2 () Int)
(declare-fun lam1n3 () Int)
(declare-fun lam1n1 () Int)
(declare-fun lam2n0 () Int)
(declare-fun lam2n2 () Int)
(declare-fun lam2n3 () Int)
(declare-fun lam2n1 () Int)
(declare-fun lam3n0 () Int)
(declare-fun lam3n2 () Int)
(declare-fun lam3n3 () Int)
(declare-fun lam3n1 () Int)
(declare-fun lam4n0 () Int)
(declare-fun lam4n2 () Int)
(declare-fun lam4n3 () Int)
(declare-fun lam4n1 () Int)
(declare-fun lam5n0 () Int)
(declare-fun lam5n2 () Int)
(declare-fun lam5n3 () Int)
(declare-fun lam5n1 () Int)
(declare-fun lam6n0 () Int)
(declare-fun lam6n1 () Int)
(declare-fun lam6n3 () Int)
(declare-fun lam6n4 () Int)
(declare-fun lam6n2 () Int)
(declare-fun lam7n0 () Int)
(declare-fun lam7n1 () Int)
(declare-fun lam7n3 () Int)
(declare-fun lam7n4 () Int)
(declare-fun lam7n2 () Int)
(declare-fun lam8n0 () Int)
(declare-fun lam8n1 () Int)
(declare-fun lam8n3 () Int)
(declare-fun lam8n4 () Int)
(declare-fun lam8n2 () Int)
(declare-fun lam9n0 () Int)
(declare-fun lam9n1 () Int)
(declare-fun lam9n2 () Int)
(declare-fun lam9n3 () Int)
(declare-fun lam9n4 () Int)
(declare-fun lam10n0 () Int)
(declare-fun lam10n1 () Int)
(declare-fun lam10n2 () Int)
(declare-fun lam10n3 () Int)
(declare-fun lam10n4 () Int)
(declare-fun lam11n0 () Int)
(declare-fun lam11n1 () Int)
(declare-fun lam11n2 () Int)
(declare-fun lam11n3 () Int)
(declare-fun lam11n4 () Int)
(declare-fun lam12n0 () Int)
(declare-fun lam12n1 () Int)
(declare-fun lam13n0 () Int)
(declare-fun lam13n1 () Int)
(declare-fun main_i () Int)
(declare-fun undef2 () Int)
(declare-fun main_up () Int)
(declare-fun FV_main_i_4 () Int)
(declare-fun FV_main_up_4 () Int)
(declare-fun lam14n0 () Int)
(declare-fun lam14n1 () Int)
(declare-fun lam14n2 () Int)
(declare-fun lam14n3 () Int)
(declare-fun FV_main_up_5 () Int)
(declare-fun FV_main_i_5 () Int)
(assert ( and ( <= ( - 1 ) Nl2main_i1 ) ( <= Nl2main_i1 1 ) ( <= ( - 1 ) Nl2main_up1 ) ( <= Nl2main_up1 1 ) ( <= ( - 1 ) Nl2main_i2 ) ( <= Nl2main_i2 1 ) ( <= ( - 1 ) Nl2main_up2 ) ( <= Nl2main_up2 1 ) ))
(assert ( or ( and ( >= lam0n0 0 ) ( >= lam0n2 0 ) ( >= lam0n3 0 ) ( > ( + ( * ( - 1 ) lam0n0 ) ( * ( - 10 ) lam0n1 ) ( * Nl2CT1 lam0n2 ) ( * Nl2CT2 lam0n3 ) ( - 1 ) ) 0 ) ( = ( + ( * 1 lam0n1 ) ( * Nl2main_i1 lam0n2 ) ( * Nl2main_i2 lam0n3 ) ) 0 ) ( = ( + ( * 1 lam0n0 ) ( * Nl2main_up1 lam0n2 ) ( * Nl2main_up2 lam0n3 ) ) 0 ) ) ( and ( >= lam1n0 0 ) ( >= lam1n2 0 ) ( >= lam1n3 0 ) ( > ( + ( * ( - 1 ) lam1n0 ) ( * ( - 10 ) lam1n1 ) ( * Nl2CT1 lam1n2 ) ( * Nl2CT2 lam1n3 ) ( - 1 ( + ( + Nl2CT1 ( * Nl2main_i1 ( - 1 ) ) ) ( * Nl2main_up1 0 ) ) ) ) 0 ) ( = ( + ( * 1 lam1n1 ) ( * Nl2main_i1 lam1n2 ) ( * Nl2main_i2 lam1n3 ) ( - ( + 0 ( * Nl2main_i1 1 ) ) ) ) 0 ) ( = ( + ( * 1 lam1n0 ) ( * Nl2main_up1 lam1n2 ) ( * Nl2main_up2 lam1n3 ) ) 0 ) ) ))
(assert ( or ( and ( >= lam0n0 0 ) ( >= lam0n2 0 ) ( >= lam0n3 0 ) ( > ( + ( * ( - 1 ) lam0n0 ) ( * ( - 10 ) lam0n1 ) ( * Nl2CT1 lam0n2 ) ( * Nl2CT2 lam0n3 ) ( - 1 ) ) 0 ) ( = ( + ( * 1 lam0n1 ) ( * Nl2main_i1 lam0n2 ) ( * Nl2main_i2 lam0n3 ) ) 0 ) ( = ( + ( * 1 lam0n0 ) ( * Nl2main_up1 lam0n2 ) ( * Nl2main_up2 lam0n3 ) ) 0 ) ) ( and ( >= lam2n0 0 ) ( >= lam2n2 0 ) ( >= lam2n3 0 ) ( > ( + ( * ( - 1 ) lam2n0 ) ( * ( - 10 ) lam2n1 ) ( * Nl2CT1 lam2n2 ) ( * Nl2CT2 lam2n3 ) ( - 1 ( + ( + Nl2CT2 ( * Nl2main_i2 ( - 1 ) ) ) ( * Nl2main_up2 0 ) ) ) ) 0 ) ( = ( + ( * 1 lam2n1 ) ( * Nl2main_i1 lam2n2 ) ( * Nl2main_i2 lam2n3 ) ( - ( + 0 ( * Nl2main_i2 1 ) ) ) ) 0 ) ( = ( + ( * 1 lam2n0 ) ( * Nl2main_up1 lam2n2 ) ( * Nl2main_up2 lam2n3 ) ) 0 ) ) ))
(assert ( or ( and ( >= lam3n0 0 ) ( >= lam3n2 0 ) ( >= lam3n3 0 ) ( > ( + ( * ( - 1 ) lam3n0 ) ( * Nl2CT1 lam3n2 ) ( * Nl2CT2 lam3n3 ) ( - 1 ) ) 0 ) ( = ( + ( * 1 lam3n1 ) ( * Nl2main_i1 lam3n2 ) ( * Nl2main_i2 lam3n3 ) ) 0 ) ( = ( + ( * 1 lam3n0 ) ( * Nl2main_up1 lam3n2 ) ( * Nl2main_up2 lam3n3 ) ) 0 ) ) ( and ( >= lam4n0 0 ) ( >= lam4n2 0 ) ( >= lam4n3 0 ) ( > ( + ( * ( - 1 ) lam4n0 ) ( * Nl2CT1 lam4n2 ) ( * Nl2CT2 lam4n3 ) ( - 1 ( + ( + Nl2CT1 ( * Nl2main_i1 1 ) ) ( * Nl2main_up1 1 ) ) ) ) 0 ) ( = ( + ( * 1 lam4n1 ) ( * Nl2main_i1 lam4n2 ) ( * Nl2main_i2 lam4n3 ) ( - ( + 0 ( * Nl2main_i1 1 ) ) ) ) 0 ) ( = ( + ( * 1 lam4n0 ) ( * Nl2main_up1 lam4n2 ) ( * Nl2main_up2 lam4n3 ) ) 0 ) ) ))
(assert ( or ( and ( >= lam3n0 0 ) ( >= lam3n2 0 ) ( >= lam3n3 0 ) ( > ( + ( * ( - 1 ) lam3n0 ) ( * Nl2CT1 lam3n2 ) ( * Nl2CT2 lam3n3 ) ( - 1 ) ) 0 ) ( = ( + ( * 1 lam3n1 ) ( * Nl2main_i1 lam3n2 ) ( * Nl2main_i2 lam3n3 ) ) 0 ) ( = ( + ( * 1 lam3n0 ) ( * Nl2main_up1 lam3n2 ) ( * Nl2main_up2 lam3n3 ) ) 0 ) ) ( and ( >= lam5n0 0 ) ( >= lam5n2 0 ) ( >= lam5n3 0 ) ( > ( + ( * ( - 1 ) lam5n0 ) ( * Nl2CT1 lam5n2 ) ( * Nl2CT2 lam5n3 ) ( - 1 ( + ( + Nl2CT2 ( * Nl2main_i2 1 ) ) ( * Nl2main_up2 1 ) ) ) ) 0 ) ( = ( + ( * 1 lam5n1 ) ( * Nl2main_i1 lam5n2 ) ( * Nl2main_i2 lam5n3 ) ( - ( + 0 ( * Nl2main_i2 1 ) ) ) ) 0 ) ( = ( + ( * 1 lam5n0 ) ( * Nl2main_up1 lam5n2 ) ( * Nl2main_up2 lam5n3 ) ) 0 ) ) ))
(assert ( or ( and ( >= lam6n0 0 ) ( >= lam6n1 0 ) ( >= lam6n3 0 ) ( >= lam6n4 0 ) ( > ( + ( * 1 lam6n0 ) ( * ( - 9 ) lam6n1 ) ( * ( - 1 ) lam6n2 ) ( * Nl2CT1 lam6n3 ) ( * Nl2CT2 lam6n4 ) ( - 1 ) ) 0 ) ( = ( + ( * ( - 1 ) lam6n0 ) ( * 1 lam6n1 ) ( * Nl2main_i1 lam6n3 ) ( * Nl2main_i2 lam6n4 ) ) 0 ) ( = ( + ( * 1 lam6n2 ) ( * Nl2main_up1 lam6n3 ) ( * Nl2main_up2 lam6n4 ) ) 0 ) ) ( and ( >= lam7n0 0 ) ( >= lam7n1 0 ) ( >= lam7n3 0 ) ( >= lam7n4 0 ) ( > ( + ( * 1 lam7n0 ) ( * ( - 9 ) lam7n1 ) ( * ( - 1 ) lam7n2 ) ( * Nl2CT1 lam7n3 ) ( * Nl2CT2 lam7n4 ) ( - 1 ( + Nl2CT1 ( * Nl2main_i1 1 ) ) ) ) 0 ) ( = ( + ( * ( - 1 ) lam7n0 ) ( * 1 lam7n1 ) ( * Nl2main_i1 lam7n3 ) ( * Nl2main_i2 lam7n4 ) ( - ( + 0 ( * Nl2main_i1 1 ) ) ) ) 0 ) ( = ( + ( * 1 lam7n2 ) ( * Nl2main_up1 lam7n3 ) ( * Nl2main_up2 lam7n4 ) ( - ( + 0 Nl2main_up1 ) ) ) 0 ) ) ))
(assert ( or ( and ( >= lam6n0 0 ) ( >= lam6n1 0 ) ( >= lam6n3 0 ) ( >= lam6n4 0 ) ( > ( + ( * 1 lam6n0 ) ( * ( - 9 ) lam6n1 ) ( * ( - 1 ) lam6n2 ) ( * Nl2CT1 lam6n3 ) ( * Nl2CT2 lam6n4 ) ( - 1 ) ) 0 ) ( = ( + ( * ( - 1 ) lam6n0 ) ( * 1 lam6n1 ) ( * Nl2main_i1 lam6n3 ) ( * Nl2main_i2 lam6n4 ) ) 0 ) ( = ( + ( * 1 lam6n2 ) ( * Nl2main_up1 lam6n3 ) ( * Nl2main_up2 lam6n4 ) ) 0 ) ) ( and ( >= lam8n0 0 ) ( >= lam8n1 0 ) ( >= lam8n3 0 ) ( >= lam8n4 0 ) ( > ( + ( * 1 lam8n0 ) ( * ( - 9 ) lam8n1 ) ( * ( - 1 ) lam8n2 ) ( * Nl2CT1 lam8n3 ) ( * Nl2CT2 lam8n4 ) ( - 1 ( + Nl2CT2 ( * Nl2main_i2 1 ) ) ) ) 0 ) ( = ( + ( * ( - 1 ) lam8n0 ) ( * 1 lam8n1 ) ( * Nl2main_i1 lam8n3 ) ( * Nl2main_i2 lam8n4 ) ( - ( + 0 ( * Nl2main_i2 1 ) ) ) ) 0 ) ( = ( + ( * 1 lam8n2 ) ( * Nl2main_up1 lam8n3 ) ( * Nl2main_up2 lam8n4 ) ( - ( + 0 Nl2main_up2 ) ) ) 0 ) ) ))
(assert ( or ( and ( >= lam9n0 0 ) ( >= lam9n1 0 ) ( >= lam9n2 0 ) ( >= lam9n3 0 ) ( >= lam9n4 0 ) ( > ( + ( * 1 lam9n1 ) ( * ( - 9 ) lam9n2 ) ( * Nl2CT1 lam9n3 ) ( * Nl2CT2 lam9n4 ) ( - 1 ) ) 0 ) ( = ( + ( * ( - 1 ) lam9n1 ) ( * 1 lam9n2 ) ( * Nl2main_i1 lam9n3 ) ( * Nl2main_i2 lam9n4 ) ) 0 ) ( = ( + ( * 1 lam9n0 ) ( * Nl2main_up1 lam9n3 ) ( * Nl2main_up2 lam9n4 ) ) 0 ) ) ( and ( >= lam10n0 0 ) ( >= lam10n1 0 ) ( >= lam10n2 0 ) ( >= lam10n3 0 ) ( >= lam10n4 0 ) ( > ( + ( * 1 lam10n1 ) ( * ( - 9 ) lam10n2 ) ( * Nl2CT1 lam10n3 ) ( * Nl2CT2 lam10n4 ) ( - 1 ( + Nl2CT1 ( * Nl2main_i1 ( - 1 ) ) ) ) ) 0 ) ( = ( + ( * ( - 1 ) lam10n1 ) ( * 1 lam10n2 ) ( * Nl2main_i1 lam10n3 ) ( * Nl2main_i2 lam10n4 ) ( - ( + 0 ( * Nl2main_i1 1 ) ) ) ) 0 ) ( = ( + ( * 1 lam10n0 ) ( * Nl2main_up1 lam10n3 ) ( * Nl2main_up2 lam10n4 ) ( - ( + 0 Nl2main_up1 ) ) ) 0 ) ) ))
(assert ( or ( and ( >= lam9n0 0 ) ( >= lam9n1 0 ) ( >= lam9n2 0 ) ( >= lam9n3 0 ) ( >= lam9n4 0 ) ( > ( + ( * 1 lam9n1 ) ( * ( - 9 ) lam9n2 ) ( * Nl2CT1 lam9n3 ) ( * Nl2CT2 lam9n4 ) ( - 1 ) ) 0 ) ( = ( + ( * ( - 1 ) lam9n1 ) ( * 1 lam9n2 ) ( * Nl2main_i1 lam9n3 ) ( * Nl2main_i2 lam9n4 ) ) 0 ) ( = ( + ( * 1 lam9n0 ) ( * Nl2main_up1 lam9n3 ) ( * Nl2main_up2 lam9n4 ) ) 0 ) ) ( and ( >= lam11n0 0 ) ( >= lam11n1 0 ) ( >= lam11n2 0 ) ( >= lam11n3 0 ) ( >= lam11n4 0 ) ( > ( + ( * 1 lam11n1 ) ( * ( - 9 ) lam11n2 ) ( * Nl2CT1 lam11n3 ) ( * Nl2CT2 lam11n4 ) ( - 1 ( + Nl2CT2 ( * Nl2main_i2 ( - 1 ) ) ) ) ) 0 ) ( = ( + ( * ( - 1 ) lam11n1 ) ( * 1 lam11n2 ) ( * Nl2main_i1 lam11n3 ) ( * Nl2main_i2 lam11n4 ) ( - ( + 0 ( * Nl2main_i2 1 ) ) ) ) 0 ) ( = ( + ( * 1 lam11n0 ) ( * Nl2main_up1 lam11n3 ) ( * Nl2main_up2 lam11n4 ) ( - ( + 0 Nl2main_up2 ) ) ) 0 ) ) ))
(assert ( and ( <= ( + Nl2CT1 ( * Nl2main_i1 FV_main_i_4 ) ( * Nl2main_up1 FV_main_up_4 ) ) 0 ) ( <= ( + Nl2CT2 ( * Nl2main_i2 FV_main_i_4 ) ( * Nl2main_up2 FV_main_up_4 ) ) 0 ) ( <= ( * ( - 1 ) FV_main_i_4 ) 0 ) ))
(assert ( and ( >= lam14n0 0 ) ( >= lam14n1 0 ) ( >= lam14n2 0 ) ( >= lam14n3 0 ) ( > ( + ( * ( - 1 ) lam14n0 ) ( * 11 lam14n1 ) ( * Nl2CT1 lam14n2 ) ( * Nl2CT2 lam14n3 ) ( - 1 ) ) 0 ) ( = ( + ( * ( - 1 ) lam14n1 ) ( * Nl2main_i1 lam14n2 ) ( * Nl2main_i2 lam14n3 ) ) 0 ) ( = ( + ( * 1 lam14n0 ) ( * Nl2main_up1 lam14n2 ) ( * Nl2main_up2 lam14n3 ) ) 0 ) ))
(assert ( and ( and ( <= ( + Nl2CT1 ( * Nl2main_up1 FV_main_up_5 ) ( * Nl2main_i1 FV_main_i_5 ) ) 0 ) ( <= ( + Nl2CT2 ( * Nl2main_up2 FV_main_up_5 ) ( * Nl2main_i2 FV_main_i_5 ) ) 0 ) ) ( or ( and ( <= ( + ( - 1 ) FV_main_up_5 ) 0 ) ( = ( + ( - 10 ) FV_main_i_5 ) 0 ) ) ( and ( <= ( + ( - 1 ) FV_main_up_5 ) 0 ) ( = FV_main_i_5 0 ) ) ( and ( <= ( + 1 ( * ( - 1 ) FV_main_i_5 ) ) 0 ) ( <= ( + ( - 9 ) FV_main_i_5 ) 0 ) ( = ( + ( - 1 ) FV_main_up_5 ) 0 ) ) ( and ( <= FV_main_up_5 0 ) ( <= ( + 1 ( * ( - 1 ) FV_main_i_5 ) ) 0 ) ( <= ( + ( - 9 ) FV_main_i_5 ) 0 ) ) ) ))
(check-sat)
(exit)
